n=10;
t=24;
profit=[1 6 3 10 2 5 2 1 2 5];
length=[1 3 1 4 5 1 5 3 2 4];
min_deliver=[2 1 13 2 16 9 7 20 1 13];
max_deliver=[7 21 16 14 17 11 8 21 20 17];
surface=[5 1 1 5 4 4 2 2 4 4];
surface_capacity=11;
